c --- [ banner ] -------------------------------------------------------------
c 
c CaDiCaL Radically Simplified CDCL SAT Solver
c Copyright (c) 2016-2021 A. Biere, M. Fleury, N. Froleyks
c 
c Version 1.5.2 a5f15211db36c3956764e18194dd5bd63bf3b5e6
c g++ (GCC) 9.3.0 -Wall -Wextra -O3 -DNDEBUG
c Fri Oct 21 01:27:37 EDT 2022 Linux gra-login3 3.10.0-1160.66.1.el7.x86_64 x86_64
c 
c --- [ limit ] --------------------------------------------------------------
c 
c setting conflict limit to 200000 conflicts (due to '200000')
c 
c --- [ parsing input ] ------------------------------------------------------
c 
c reading DIMACS file from '33.cubes5866.adj'
c opening file to read '33.cubes5866.adj'
c found 'p cnf 6160 1595472' header
c parsed 1595472 clauses in 19.59 seconds process time
c closing file '33.cubes5866.adj'
c after reading 1457566753 bytes 1390.0 MB
c 
c --- [ options ] ------------------------------------------------------------
c 
c all options are set to their default value
c 
c --- [ solving ] ------------------------------------------------------------
c 
c time measured in process time since initialization
c 
c  seconds    reductions  redundant   irredundant
c          MB     restarts       trail       variables
c            level   conflicts       glue         remaining
c 
c * 19.59 1378  0 0   0    0    0  0% 0 1595422 2385 39%
c { 21.09 1453  0 0   0    0    0  0% 0 1595422 2385 39%
c i 22.64 1479 911 0   4   60   44 37% 7 1595422 2375 39%
c i 25.90 1509 322 0  36  190  155 30% 21 1595422 2374 39%
c i 26.41 1513 275 0  45  231  190 29% 22 1595422 2344 38%
c - 31.90 1463 228 1  58  300  239 29% 22 412866 2325 38%
c i 32.14 1464 192 1  58  367  294 29% 22 412866 2324 38%
c i 32.40 1464 188 1  59  393  319 29% 22 412866 2323 38%
c i 32.91 1464 172 1  75  464  382 28% 24 412866 2321 38%
c i 32.96 1464 168 1  79  478  392 28% 24 412866 2320 38%
c i 33.04 1464 165 1  82  494  406 28% 25 412866 2319 38%
c i 33.67 1465 141 1 100  625  508 28% 26 412866 2318 38%
c i 33.68 1465 141 1 100  627  509 28% 26 412866 2317 38%
c i 33.77 1465 136 1 100  659  534 28% 25 412866 2316 38%
c i 33.99 1465 134 1 106  692  563 28% 26 412866 2315 38%
c i 34.02 1465 133 1 107  699  566 28% 26 412866 2314 38%
c i 34.03 1465 132 1 107  705  570 28% 26 412866 2313 38%
c i 34.11 1465 131 1 111  721  580 28% 26 412866 2312 38%
c i 34.15 1465 130 1 114  730  587 28% 26 412866 2311 38%
c i 34.55 1465 117 1 121  845  661 27% 26 412866 2310 38%
c 
c  seconds     reductions  redundant   irredundant
c          MB      restarts       trail       variables
c             level   conflicts       glue         remaining
c 
c i 34.75 1465 115 1 130  886  692 27% 27 412866 2309 37%
c i 34.91 1465 111 1 135  923  710 27% 26 412866 2308 37%
c } 35.16 1465 105 1 139 1002  742 27% 26 412866 2308 37%
c [ 35.16 1465  0 1 139 1002  742  0% 0 412866 2308 37%
c O 35.17 1465  4 1 139 1003  743 15% 1 412866 2308 37%
c i 35.41 1465 16 1 139 1213  925 33% 14 412866 2307 37%
c - 36.15 1641 15 2 139 1270  865 32% 13 412812 2307 37%
c i 36.32 1641 16 2 139 1301  891 32% 13 412812 2306 37%
c i 36.34 1641 16 2 139 1317  899 32% 13 412812 2305 37%
c i 36.35 1641 16 2 139 1318  899 32% 13 412812 2304 37%
c i 36.35 1641 16 2 139 1322  900 32% 13 412812 2303 37%
c i 36.37 1641 16 2 139 1347  918 32% 13 412812 2302 37%
c i 36.37 1641 16 2 139 1348  918 32% 13 412812 2301 37%
c i 36.40 1641 16 2 139 1376  931 32% 13 412812 2300 37%
c i 36.40 1641 16 2 139 1382  936 32% 13 412812 2299 37%
c i 36.54 1641 19 2 139 1591 1060 31% 15 412812 2298 37%
c i 36.60 1641 19 2 139 1653 1101 31% 15 412812 2297 37%
c i 36.66 1641 19 2 139 1760 1167 31% 15 412812 2296 37%
c i 36.81 1641 18 2 139 2042 1344 31% 14 412812 2295 37%
c i 36.84 1641 18 2 140 2106 1384 31% 15 412812 2294 37%
c 
c  seconds    reductions  redundant   irredundant
c          MB     restarts       trail       variables
c            level   conflicts       glue         remaining
c 
c i 36.84 1641 18 2 140 2107 1384 31% 15 412812 2293 37%
c i 36.84 1641 18 2 140 2108 1384 31% 15 412812 2292 37%
c i 37.01 1641 18 2 140 2446 1595 31% 15 412812 2291 37%
c - 37.70 1637 18 3 140 2724 1309 31% 15 412764 2291 37%
c ] 38.31 1636 19 3 140 3005 1468 49% 16 412764 2291 37%
c { 38.31 1636 105 3 140 3005 1468 72% 26 412764 2291 37%
c F 38.33 1636 105 3 140 3006 1469 72% 26 412764 2291 37%
c i 38.95 1636 98 3 148 3136 1585 68% 26 412764 2290 37%
c i 39.32 1636 95 3 153 3203 1637 67% 25 412764 2289 37%
c i 40.77 1636 73 3 174 3869 2024 57% 23 412764 2288 37%
c i 41.28 1636 66 3 184 4217 2299 55% 22 412764 2287 37%
c - 43.02 1635 59 4 207 4662 1729 50% 21 412752 2287 37%
c i 43.20 1635 56 4 207 4818 1748 48% 21 412752 2286 37%
c i 44.09 1635 57 4 223 4905 1827 48% 22 412752 2285 37%
c 2 45.62 1635 58 4 239 5000 2755 48% 22 412730 2273 37%
c p 53.41 1635 58 4 239 5000 5228 48% 22 412730 2212 36%
c d 54.08 1635 58 4 239 5000 5139 48% 22 412533 2209 36%
c # 59.20 1635 55 4 341 6007 6011 47% 23 412533 2209 36%
c } 59.89 1635 49 4 342 7005 6728 47% 22 412533 2209 36%
c [ 59.89 1635 19 4 342 7005 6728 49% 16 412533 2209 36%
c 
c  seconds    reductions  redundant   irredundant
c          MB     restarts       trail       variables
c            level   conflicts       glue         remaining
c 
c - 60.28 1468 19 5 342 7085 2762 48% 16 412533 2209 36%
c - 62.29 1626 24 6 344 9992 3232 47% 20 412533 2209 36%
c I 62.36 1626 24 6 344 10009 3246 47% 20 412533 2209 36%
c ] 63.41 1626 30 6 345 11011 4045 47% 25 412533 2209 36%
c 1 63.41 1626 30 6 345 11011 4045 47% 25 412533 2209 36%
c 
c --- [ writing output ] -----------------------------------------------------
c 
c writing simplified CNF to DIMACS file 'simp/33.cubes5866.adj.simp1'
c * 63.41 1626 30 6 345 11011 4045 47% 25 412533 2209 36%
c opening file to write 'simp/33.cubes5866.adj.simp1'
c writing 'p cnf 6160 412533' header
c closing file 'simp/33.cubes5866.adj.simp1'
c after writing 180067875 bytes 171.7 MB
c wrote 412533 clauses in 1.33 seconds process time
c 
c --- [ writing extension ] --------------------------------------------------
c 
c writing extension stack to 'simp/33.cubes5866.adj.ext1'
c opening file to write 'simp/33.cubes5866.adj.ext1'
c closing file 'simp/33.cubes5866.adj.ext1'
c after writing 12263 bytes 0.0 MB
c wrote 818 witnesses in 0.00 seconds process time
c 
c --- [ result ] -------------------------------------------------------------
c 
s SATISFIABLE
c 
c --- [ run-time profiling ] -------------------------------------------------
c 
c process time taken by individual solving procedures
c (percentage relative to process time for solving)
c 
c        34.58   78.93% search
c        26.42   60.30% unstable
c        19.59   44.72% parse
c         9.23   21.07% simplify
c         7.79   17.78% probe
c         6.66   15.21% stable
c         1.50    3.41% lucky
c         0.06    0.13% ternary
c   =================================
c        43.81   67.68% solve
c 
c last line shows process time for solving
c (percentage relative to total process time)
c 
c --- [ statistics ] ---------------------------------------------------------
c 
c chronological:              2319        21.06 %  of conflicts
c conflicts:                 11011       251.32    per second
c decisions:                 40729       929.60    per second
c fixed:                       796        12.92 %  of all variables
c learned:                   10773        97.84 %  per conflict
c learned_lits:            1781120       100.00 %  learned literals
c minimized:                     0         0.00 %  learned literals
c shrunken:                1000005        56.14 %  learned literals
c minishrunken:             163666         9.19 %  learned literals
c propagations:            1609372         0.04 M  per second
c reduced:                    3592        32.62 %  per conflict
c rephased:                      4      2752.75    interval
c restarts:                    345        31.92    interval
c stabilizing:                   2        54.57 %  of conflicts
c substituted:                  11         0.18 %  of all variables
c subsumed:                   3150         0.09 %  of all clauses
c ternary:                     845         0.49 %  of resolved
c weakened:                     22         2.00    average size
c 
c seconds are measured in process time for solving
c 
c --- [ resources ] ----------------------------------------------------------
c 
c total process time since initialization:        64.75    seconds
c total real time since initialization:           65.50    seconds
c maximum resident set size of process:         1812.04    MB
c 
c --- [ shutting down ] ------------------------------------------------------
c 
c exit 10
WARNING! DIMACS header mismatch: wrong number of variables.
============================[ Problem Statistics ]=============================
|                                                                             |
|  Number of variables:          6120                                         |
|  Number of clauses:          412533                                         |
|  Parse time:                   2.44 s                                       |
|  Simplification time:          0.07 s                                       |
|                                                                             |
============================[ Search Statistics ]====================================================
| Conflicts |          ORIGINAL         |          LEARNT          | Num Sols |      SUBGRAPHS      |
|           |    Vars  Clauses Literals |    Limit  Clauses Lit/Cl |          | Canonical Noncanon. |
=====================================================================================================
|       126 |    6028   412559 39451594 |     2000      126     79 |        0 |        23        26 |
|       277 |    6028   412560 39451614 |     2000      277     86 |        0 |        34        27 |
|       520 |    6028   412578 39451973 |     2000      520     85 |        0 |        53        45 |
|       859 |    6028   412580 39452010 |     2000      859     90 |        0 |        61        47 |
|      1370 |    6028   412585 39452350 |     2000     1370     97 |        0 |        67        52 |
|      3363 |    6028   413819 39476693 |     3600     2363     26 |        0 |       548      1286 |
|      6065 |    6028   415382 39507757 |     5004     3269     38 |        0 |      1069      2849 |
|     13232 |    6028   420841 39601590 |     7560     4792     14 |        0 |      2369      8308 |
|     25644 |    6028   430691 39787043 |     9994     9038     15 |        0 |      4297     18158 |
|     41531 |    6028   442734 39989244 |    13610     8141     29 |        0 |      5883     30201 |
|     48516 |    6028   443953 40011689 |    14810     8326     19 |        0 |      6143     31420 |
|     57692 |    6028   444480 40021223 |    16008    10100     35 |        0 |      6297     31947 |
|     71201 |    6028   445015 40032103 |    17210    15611     57 |        0 |      6412     32482 |
|     99396 |    6028   453749 40164217 |    20808    16204     51 |        0 |      7474     41216 |
|    136163 |    6028   461324 40302973 |    24414    19977     40 |        0 |      8778     48791 |
|    276308 |    6028   557680 41948342 |    35217    28725     13 |        0 |     19870    145147 |
|    442602 |    6028   658290 43466320 |    44809    37411     12 |        0 |     29485    245757 |
=====================================================================================================
Number of solutions   : 0
Canonical subgraphs   : 43987          (49 /sec)
          order  3    : 1              (142857 /sec)
          order  4    : 1              (500000 /sec)
          order  5    : 1              (250000 /sec)
          order  6    : 1              (55556 /sec)
          order  7    : 2              (10582 /sec)
          order  8    : 4              (2080 /sec)
          order  9    : 14             (553 /sec)
          order 10    : 68             (205 /sec)
          order 11    : 295            (95 /sec)
          order 12    : 1220           (70 /sec)
          order 13    : 5850           (69 /sec)
          order 14    : 32363          (54 /sec)
          order 15    : 3765           (23 /sec)
          order 16    : 394            (15 /sec)
          order 17    : 8              (12 /sec)
          order 18    : 0              (-nan /sec)
          order 19    : 0              (-nan /sec)
          order 20    : 0              (-nan /sec)
          order 21    : 0              (-nan /sec)
          order 22    : 0              (-nan /sec)
Noncanonical subgraphs: 446184         (338 /sec)
          order  3    : 0              (-nan /sec)
          order  4    : 0              (-nan /sec)
          order  5    : 0              (-nan /sec)
          order  6    : 0              (-nan /sec)
          order  7    : 0              (-nan /sec)
          order  8    : 0              (-nan /sec)
          order  9    : 0              (-nan /sec)
          order 10    : 0              (-nan /sec)
          order 11    : 0              (-nan /sec)
          order 12    : 0              (-nan /sec)
          order 13    : 27271          (2633 /sec)
          order 14    : 39488          (3256 /sec)
          order 15    : 369621         (296 /sec)
          order 16    : 8992           (207 /sec)
          order 17    : 812            (143 /sec)
          order 18    : 0              (-nan /sec)
          order 19    : 0              (-nan /sec)
          order 20    : 0              (-nan /sec)
          order 21    : 0              (-nan /sec)
Canonicity checking   : 898.481 s
Noncanonicity checking: 1319.13 s
Total canonicity time : 2217.61 s
database reductions   : 46
restarts              : 1534
conflicts             : 727468         (281 /sec)
decisions             : 1316753        (0.00 % random) (508 /sec)
propagations          : 83799999       (32327 /sec)
conflict literals     : 32770091       (55.65 % deleted)
actual reward         : 0.065299
Memory used           : 619.00 MB
CPU time              : 2592.27 s

UNSATISFIABLE
